JulietBench/Juliet_Based_Patch_Bench/FFmpeg/CWE-369-Divide-By-Zero/CVE_2018_14395_fa19fbcf712a6a6cc5a5cfdc3254a97b9bce6582/Resultmov_write_audio_tagEQ.smt2
; benchmark generated from python API
(set-info :status unknown)
(declare-fun R () (_ BitVec 32))
(declare-fun rdi () (_ BitVec 64))
(declare-fun rsi () (_ BitVec 64))
(declare-fun rdx () (_ BitVec 64))
(assert
 (let (($x126 (= (_ bv0 32) R)))
 (let ((?x6 ((_ extract 31 0) rdi)))
 (let (($x41 (and (distinct (_ bv2 32) ?x6) true)))
 (let (($x127 (and $x41 $x126)))
 (let (($x121 (= (_ bv1 32) R)))
 (let (($x15 (= (_ bv2 32) ?x6)))
 (let ((?x8 ((_ extract 31 0) rsi)))
 (let (($x54 (bvule ?x8 (_ bv65535 32))))
 (let (($x129 (and $x54 $x15 $x121)))
 (let (($x123 (= (_ bv2 32) R)))
 (let (($x70 (bvugt ?x8 (_ bv65535 32))))
 (let (($x125 (and $x70 $x15 $x123)))
 (let (($x130 (or $x125 $x129 $x127)))
 (let ((?x10 ((_ extract 31 0) rdx)))
 (let (($x82 (= (_ bv0 32) ?x10)))
 (let (($x124 (and $x82 $x54 $x15 $x123)))
 (let (($x86 (and (distinct (_ bv0 32) ?x10) true)))
 (let (($x122 (and $x86 $x54 $x15 $x121)))
 (let (($x128 (or $x122 $x124 $x125 $x127)))
 (and $x128 $x130)))))))))))))))))))))
(check-sat)
